benchmarks/bfuzz0/304311138614785117664255777102088508.smt2
(set-logic QF_FP)
(declare-const x0 (_ FloatingPoint 8 24))
(declare-const x1 (_ FloatingPoint 8 24))
(declare-const x2 (_ FloatingPoint 8 24))
(declare-const x3 (_ FloatingPoint 8 24))
(declare-const x4 (_ FloatingPoint 8 24))
(declare-const x5 (_ FloatingPoint 8 24))
(assert (fp.geq (fp.add RNE x4 x4) (fp.neg x4)))
(assert (fp.lt (fp.div RNE x4 x5) (fp.add RNE x3 x4)))
(assert (fp.lt (fp.add RNE x2 x1) (fp.neg x1)))
(assert (fp.gt (fp.sub RNE x3 x5) (fp.add RNE x5 x1)))
(assert (fp.leq (fp.sub RNE x5 x3) (fp.sub RNE x0 x2)))
(assert (fp.geq (fp.mul RNE x2 x5) (fp.div RNE x1 x0)))
(assert (fp.leq (fp.sub RNE x1 x3) (fp.add RNE x2 x3)))
(assert (fp.lt (fp.mul RNE x3 x1) (fp.sub RNE x2 x2)))
(assert (fp.eq (fp.mul RNE x3 x2) (fp.add RNE x1 x3)))
(assert (fp.leq (fp.add RNE x4 x2) (fp.neg x5)))
(assert (fp.lt (fp.mul RNE x5 x5) (fp.neg x0)))
(assert (fp.lt (fp.div RNE x3 x4) (fp.neg x5)))
(assert (fp.gt (fp.div RNE x5 x5) (fp.sub RNE x0 x5)))
(assert (fp.leq (fp.sub RNE x2 x5) (fp.add RNE x2 x3)))
(assert (fp.eq (fp.sub RNE x0 x0) (fp.mul RNE x4 x5)))
(assert (fp.geq (fp.div RNE x0 x1) (fp.mul RNE x3 x3)))
(assert (fp.lt (fp.neg x0) (fp.sub RNE x5 x0)))
(assert (fp.leq (fp.add RNE x4 x4) (fp.neg x2)))
(assert (fp.gt (fp.neg x2) (fp.div RNE x3 x4)))
(assert (fp.lt (fp.neg x0) (fp.add RNE x5 x4)))
(check-sat)
