db/data/304311138614785117664255777102088508.z3.out
unsat
-------------------
33.003580074
